(declare-fun bvlambda_13_ ()Bool         )
(declare-fun bvlambda_14_ () (_ BitVec 3))
(declare-fun bvlambda_15_ () (_ BitVec 2))
(declare-fun bvlambda_16_ ()Bool         )
(declare-fun bvlambda_17_ ()Bool         )
(declare-fun bvlambda_18_ ()Bool         )
(declare-fun bvlambda_19_ () (_ BitVec 2))
(declare-fun bvlambda_20_ ()Bool         )
(declare-fun bvlambda_21_ ()Bool         )
(declare-fun bvlambda_35_ ()Bool         )
(declare-fun bvlambda_36_ () (_ BitVec 2))
(declare-fun bvlambda_37_ ()Bool         )
(declare-fun bvlambda_38_ ()Bool         )
(declare-fun bvlambda_48_ () (_ BitVec 2))
(declare-fun bvlambda_49_ () (_ BitVec 3))
(declare-fun bvlambda_54_ ()Bool         )
(declare-fun bvlambda_55_ () (_ BitVec 7))
(declare-fun bvlambda_59_ ()Bool         )
(declare-fun bvlambda_60_ () (_ BitVec 2))
(declare-fun bvlambda_61_ () (_ BitVec 4))
(declare-fun bvlambda_62_ ()Bool         )
(declare-fun bvlambda_63_ ()Bool         )
(declare-fun bvlambda_77_ ()Bool         )
(declare-fun bvlambda_86_ ()Bool         )
(declare-fun bvlambda_87_ ()Bool         )
(declare-fun bvlambda_88_ () (_ BitVec 2))
(declare-fun bvlambda_89_ ()Bool         )
(declare-fun a152 () (Array (_ BitVec 1) (_ BitVec 5)))
(assert
(let (($e1 false    ))
(let (($e8 false    ))
(let (($e10 (_ bv0 2)))
(let (($e13 (_ bv0 6)))
(let (($e17 (_ bv0 3)))
(let (($e25 (_ bv28 5)))
(let (($e30 (_ bv0 12)))
(let (($e157               bvlambda_21_                       ))
(let (($e158                             $e157 ))
(let (($e159                             $e158 ))
(let (($e160        $e159       ))
(let (($e161        $e160       ))
(let (($e185        $e161       ))
(let (($e186 (concat bvlambda_48_ bvlambda_49_)))
(let (($e187 (store a152 $e1 $e186)))
(let (($e188 (store $e187 $e185        $e25 )))
(let (($e189 (select $e188 true       )))
(let (($e190 (concat $e10 $e189)))
(let (($e193                          $e190 ))
(let (($e196                          $e193 ))
(let (($e197         $e196       ))
(let (($e202                          $e197 ))
(let (($e271         bvlambda_77_              ))
(let (($e272         $e271              ))
(let (($e274                                 $e272 ))
(let (($e275                      $e274 ))
(let (($e305                    $e275 ))
(let (($e455 (concat bvlambda_54_ bvlambda_55_)))
(let (($e456 (concat $e455 bvlambda_86_)))
(let (($e457 (concat $e456 bvlambda_87_)))
(let (($e458 (concat $e457 bvlambda_88_)))
(let (($e459 (concat $e458 bvlambda_89_)))
(let (($e460            $e459 ))
(let (($e462                             $e460  ))
(let (($e467 (select a152 bvlambda_16_)))
(let (($e468 (concat $e8 $e467)))
(let (($e483              $e468 ))
(let (($e486                      $e462 ))
(let (($e487                    $e486       ))
(let (($e489                $e487                              ))
(let (($e491                           $e489        ))
(let (($e492                   $e491 ))
(let (($e497                    $e492       ))
(let (($e504                             $e497  ))
(let (($e505               $e504                ))
(let (($e589 (concat (bvnot $e17) bvlambda_59_)))
(let (($e590 (concat $e589 bvlambda_60_)))
(let (($e591 (concat $e590 bvlambda_61_)))
(let (($e592 (concat $e591 bvlambda_62_)))
(let (($e593 (concat $e592 bvlambda_63_)))
(let (($e594                           $e593       ))
(let (($e601 (concat bvlambda_13_ bvlambda_14_)))
(let (($e602 (concat $e601 bvlambda_15_)))
(let (($e603 (concat $e602 bvlambda_16_)))
(let (($e604 (concat $e603 bvlambda_17_)))
(let (($e605 (concat $e604 bvlambda_18_)))
(let (($e606 (concat $e605 bvlambda_19_)))
(let (($e607 (concat $e606 bvlambda_20_)))
(let (($e608        $e607       ))
(let (($e609      (bvult $e608 $e594)         ))
(let (($e610        (bvnot $e609)               ))
(let (($e613 ((_ extract 6 1) $e202)))
(let (($e614      (= $e13 $e613)         ))
(let (($e615        $e614       ))
(let (($e617 (concat $e30        $e615 )))
(let (($e618                    $e617       ))
(let (($e619      (bvult        $e505  $e618)         ))
(let (($e620 (bvand $e619 $e610)))
(let (($e736               $e305        ))
(let (($e737               $e736                ))
(let (($e747 (concat $e8 bvlambda_37_)))
(let (($e748 (concat $e747 bvlambda_38_)))
(let (($e751                                 $e748 ))
(let (($e752 (concat $e751 bvlambda_35_)))
(let (($e753 (concat $e752 bvlambda_36_)))
(let (($e754      (bvult $e483 $e753)         ))
(let (($e755        $e754       ))
(let (($e756 (bvand        $e755  $e737)))
(let (($e798              $e756 ))
(let (($e799               $e798                ))
(let (($e801               $e799                ))
(let (($e802               $e801                ))
             (bvand        $e802  $e620)
                                                                                                                                                                                                                                                                                                                                                                                                                                                                                                                                                                                                                                                                                                                                                                                                                                                                                                                                                                                                                                                                                                                                                                                                                                                                                                                                                                                                                                                                                                                                                                                                                                                                                                                                                                                                                                                                                                                                                                                                                                                                                                                                                                                                                                                                                                                                                                                                                                         )) ))                                         ))))))  ))         ))                                                                                                                   )))) )))  ))))))))))      ))))))                                                                                   ))      )    )) ) ))  )              ))    ) ))))))                                                                                                                                                     )                             )) ))                                                                    )    ))  )  ))))))                       )))))                           )    )       )   )  ) )      ))
